lp/diabetes_small.txt.hm0.5.lp
\ENCODING=ISO-8859-1
\Problem name: SVM

Minimize
 obj: 0.5 z0 + 0.5 z1 + 0.5 z2 + 0.5 z3 + 0.5 z4 + 0.5 z5 + 0.5 z6 + 0.5 z7
      + 0.5 z8 + 0.5 z9 + 0.5 z10 + 0.5 z11 + 0.5 z12 + 0.5 z13 + 0.5 z14
      + 0.5 z15 + 0.5 z16 + 0.5 z17 + 0.5 z18 + 0.5 z19 + 0.5 z20 + 0.5 z21
      + 0.5 z22 + 0.5 z23 + 0.5 z24 + 0.5 z25 + 0.5 z26 + 0.5 z27 + 0.5 z28
      + 0.5 z29 + 0.5 z30 + 0.5 z31 + 0.5 z32 + 0.5 z33 + 0.5 z34 + 0.5 z35
      + 0.5 z36 + 0.5 z37 + 0.5 z38 + 0.5 z39 + 0.5 z40 + 0.5 z41 + 0.5 z42
      + 0.5 z43 + 0.5 z44 + 0.5 z45 + 0.5 z46 + 0.5 z47 + 0.5 z48 + 0.5 z49
      + 0.5 z50 + 0.5 z51 + 0.5 z52 + 0.5 z53 + 0.5 z54 + 0.5 z55 + 0.5 z56
      + 0.5 z57 + 0.5 z58 + 0.5 z59 + 0.5 z60 + 0.5 z61 + 0.5 z62 + 0.5 z63
      + 0.5 z64 + 0.5 z65 + 0.5 z66 + 0.5 z67 + 0.5 z68 + 0.5 z69 + 0.5 z70
      + 0.5 z71 + 0.5 z72 + 0.5 z73 + 0.5 z74 + 0.5 z75 + 0.5 z76 + 0.5 z77
      + 0.5 z78 + 0.5 z79 + 0.5 z80 + 0.5 z81 + 0.5 z82 + 0.5 z83 + 0.5 z84
      + 0.5 z85 + 0.5 z86 + [ w0 ^2 + w1 ^2 + w2 ^2 + w3 ^2 + w4 ^2 + w5 ^2
      + w6 ^2 + w7 ^2 ] / 2
Subject To
 c1:  - 6 w0 - 148 w1 - 72 w2 - 35 w3 - 33.6 w5 - 0.627 w6 - 50 w7 - b
      + 10000 z0 >= 1
 c2:  w0 + 85 w1 + 66 w2 + 29 w3 + 26.6 w5 + 0.351 w6 + 31 w7 + b + 10000 z1
      >= 1
 c3:  - 8 w0 - 183 w1 - 64 w2 - 23.3 w5 - 0.672 w6 - 32 w7 - b + 10000 z2 >= 1
 c4:  w0 + 89 w1 + 66 w2 + 23 w3 + 94 w4 + 28.1 w5 + 0.167 w6 + 21 w7 + b
      + 10000 z3 >= 1
 c5:  - 137 w1 - 40 w2 - 35 w3 - 168 w4 - 43.1 w5 - 2.288 w6 - 33 w7 - b
      + 10000 z4 >= 1
 c6:  5 w0 + 116 w1 + 74 w2 + 25.6 w5 + 0.201 w6 + 30 w7 + b + 10000 z5 >= 1
 c7:  - 3 w0 - 78 w1 - 50 w2 - 32 w3 - 88 w4 - 31 w5 - 0.248 w6 - 26 w7 - b
      + 10000 z6 >= 1
 c8:  10 w0 + 115 w1 + 35.3 w5 + 0.134 w6 + 29 w7 + b + 10000 z7 >= 1
 c9:  - 2 w0 - 197 w1 - 70 w2 - 45 w3 - 543 w4 - 30.5 w5 - 0.158 w6 - 53 w7 - b
      + 10000 z8 >= 1
 c10: - 8 w0 - 125 w1 - 96 w2 - 0.232 w6 - 54 w7 - b + 10000 z9 >= 1
 c11: 4 w0 + 110 w1 + 92 w2 + 37.6 w5 + 0.191 w6 + 30 w7 + b + 10000 z10 >= 1
 c12: - 10 w0 - 168 w1 - 74 w2 - 38 w5 - 0.537 w6 - 34 w7 - b + 10000 z11 >= 1
 c13: 10 w0 + 139 w1 + 80 w2 + 27.1 w5 + 1.441 w6 + 57 w7 + b + 10000 z12 >= 1
 c14: - w0 - 189 w1 - 60 w2 - 23 w3 - 846 w4 - 30.1 w5 - 0.398 w6 - 59 w7 - b
      + 10000 z13 >= 1
 c15: - 5 w0 - 166 w1 - 72 w2 - 19 w3 - 175 w4 - 25.8 w5 - 0.587 w6 - 51 w7 - b
      + 10000 z14 >= 1
 c16: - 7 w0 - 100 w1 - 30 w5 - 0.484 w6 - 32 w7 - b + 10000 z15 >= 1
 c17: - 118 w1 - 84 w2 - 47 w3 - 230 w4 - 45.8 w5 - 0.551 w6 - 31 w7 - b
      + 10000 z16 >= 1
 c18: - 7 w0 - 107 w1 - 74 w2 - 29.6 w5 - 0.254 w6 - 31 w7 - b + 10000 z17 >= 1
 c19: w0 + 103 w1 + 30 w2 + 38 w3 + 83 w4 + 43.3 w5 + 0.183 w6 + 33 w7 + b
      + 10000 z18 >= 1
 c20: - w0 - 115 w1 - 70 w2 - 30 w3 - 96 w4 - 34.6 w5 - 0.529 w6 - 32 w7 - b
      + 10000 z19 >= 1
 c21: 3 w0 + 126 w1 + 88 w2 + 41 w3 + 235 w4 + 39.3 w5 + 0.704 w6 + 27 w7 + b
      + 10000 z20 >= 1
 c22: 8 w0 + 99 w1 + 84 w2 + 35.4 w5 + 0.388 w6 + 50 w7 + b + 10000 z21 >= 1
 c23: - 7 w0 - 196 w1 - 90 w2 - 39.8 w5 - 0.451 w6 - 41 w7 - b + 10000 z22 >= 1
 c24: - 9 w0 - 119 w1 - 80 w2 - 35 w3 - 29 w5 - 0.263 w6 - 29 w7 - b
      + 10000 z23 >= 1
 c25: - 11 w0 - 143 w1 - 94 w2 - 33 w3 - 146 w4 - 36.6 w5 - 0.254 w6 - 51 w7
      - b + 10000 z24 >= 1
 c26: - 10 w0 - 125 w1 - 70 w2 - 26 w3 - 115 w4 - 31.1 w5 - 0.205 w6 - 41 w7
      - b + 10000 z25 >= 1
 c27: - 7 w0 - 147 w1 - 76 w2 - 39.4 w5 - 0.257 w6 - 43 w7 - b + 10000 z26 >= 1
 c28: w0 + 97 w1 + 66 w2 + 15 w3 + 140 w4 + 23.2 w5 + 0.487 w6 + 22 w7 + b
      + 10000 z27 >= 1
 c29: 13 w0 + 145 w1 + 82 w2 + 19 w3 + 110 w4 + 22.2 w5 + 0.245 w6 + 57 w7 + b
      + 10000 z28 >= 1
 c30: 5 w0 + 117 w1 + 92 w2 + 34.1 w5 + 0.337 w6 + 38 w7 + b + 10000 z29 >= 1
 c31: 5 w0 + 109 w1 + 75 w2 + 26 w3 + 36 w5 + 0.546 w6 + 60 w7 + b + 10000 z30
      >= 1
 c32: - 3 w0 - 158 w1 - 76 w2 - 36 w3 - 245 w4 - 31.6 w5 - 0.851 w6 - 28 w7 - b
      + 10000 z31 >= 1
 c33: 3 w0 + 88 w1 + 58 w2 + 11 w3 + 54 w4 + 24.8 w5 + 0.267 w6 + 22 w7 + b
      + 10000 z32 >= 1
 c34: 6 w0 + 92 w1 + 92 w2 + 19.9 w5 + 0.188 w6 + 28 w7 + b + 10000 z33 >= 1
 c35: 10 w0 + 122 w1 + 78 w2 + 31 w3 + 27.6 w5 + 0.512 w6 + 45 w7 + b
      + 10000 z34 >= 1
 c36: 4 w0 + 103 w1 + 60 w2 + 33 w3 + 192 w4 + 24 w5 + 0.966 w6 + 33 w7 + b
      + 10000 z35 >= 1
 c37: 11 w0 + 138 w1 + 76 w2 + 33.2 w5 + 0.42 w6 + 35 w7 + b + 10000 z36 >= 1
 c38: - 9 w0 - 102 w1 - 76 w2 - 37 w3 - 32.9 w5 - 0.665 w6 - 46 w7 - b
      + 10000 z37 >= 1
 c39: - 2 w0 - 90 w1 - 68 w2 - 42 w3 - 38.2 w5 - 0.503 w6 - 27 w7 - b
      + 10000 z38 >= 1
 c40: - 4 w0 - 111 w1 - 72 w2 - 47 w3 - 207 w4 - 37.1 w5 - 1.39 w6 - 56 w7 - b
      + 10000 z39 >= 1
 c41: 3 w0 + 180 w1 + 64 w2 + 25 w3 + 70 w4 + 34 w5 + 0.271 w6 + 26 w7 + b
      + 10000 z40 >= 1
 c42: 7 w0 + 133 w1 + 84 w2 + 40.2 w5 + 0.696 w6 + 37 w7 + b + 10000 z41 >= 1
 c43: 7 w0 + 106 w1 + 92 w2 + 18 w3 + 22.7 w5 + 0.235 w6 + 48 w7 + b
      + 10000 z42 >= 1
 c44: - 9 w0 - 171 w1 - 110 w2 - 24 w3 - 240 w4 - 45.4 w5 - 0.721 w6 - 54 w7
      - b + 10000 z43 >= 1
 c45: 7 w0 + 159 w1 + 64 w2 + 27.4 w5 + 0.294 w6 + 40 w7 + b + 10000 z44 >= 1
 c46: - 180 w1 - 66 w2 - 39 w3 - 42 w5 - 1.893 w6 - 25 w7 - b + 10000 z45 >= 1
 c47: w0 + 146 w1 + 56 w2 + 29.7 w5 + 0.564 w6 + 29 w7 + b + 10000 z46 >= 1
 c48: 2 w0 + 71 w1 + 70 w2 + 27 w3 + 28 w5 + 0.586 w6 + 22 w7 + b + 10000 z47
      >= 1
 c49: - 7 w0 - 103 w1 - 66 w2 - 32 w3 - 39.1 w5 - 0.344 w6 - 31 w7 - b
      + 10000 z48 >= 1
 c50: 7 w0 + 105 w1 + 0.305 w6 + 24 w7 + b + 10000 z49 >= 1
 c51: w0 + 103 w1 + 80 w2 + 11 w3 + 82 w4 + 19.4 w5 + 0.491 w6 + 22 w7 + b
      + 10000 z50 >= 1
 c52: w0 + 101 w1 + 50 w2 + 15 w3 + 36 w4 + 24.2 w5 + 0.526 w6 + 26 w7 + b
      + 10000 z51 >= 1
 c53: 5 w0 + 88 w1 + 66 w2 + 21 w3 + 23 w4 + 24.4 w5 + 0.342 w6 + 30 w7 + b
      + 10000 z52 >= 1
 c54: - 8 w0 - 176 w1 - 90 w2 - 34 w3 - 300 w4 - 33.7 w5 - 0.467 w6 - 58 w7 - b
      + 10000 z53 >= 1
 c55: 7 w0 + 150 w1 + 66 w2 + 42 w3 + 342 w4 + 34.7 w5 + 0.718 w6 + 42 w7 + b
      + 10000 z54 >= 1
 c56: w0 + 73 w1 + 50 w2 + 10 w3 + 23 w5 + 0.248 w6 + 21 w7 + b + 10000 z55
      >= 1
 c57: - 7 w0 - 187 w1 - 68 w2 - 39 w3 - 304 w4 - 37.7 w5 - 0.254 w6 - 41 w7 - b
      + 10000 z56 >= 1
 c58: 100 w1 + 88 w2 + 60 w3 + 110 w4 + 46.8 w5 + 0.962 w6 + 31 w7 + b
      + 10000 z57 >= 1
 c59: 146 w1 + 82 w2 + 40.5 w5 + 1.781 w6 + 44 w7 + b + 10000 z58 >= 1
 c60: 105 w1 + 64 w2 + 41 w3 + 142 w4 + 41.5 w5 + 0.173 w6 + 22 w7 + b
      + 10000 z59 >= 1
 c61: 2 w0 + 84 w1 + 0.304 w6 + 21 w7 + b + 10000 z60 >= 1
 c62: - 8 w0 - 133 w1 - 72 w2 - 32.9 w5 - 0.27 w6 - 39 w7 - b + 10000 z61 >= 1
 c63: 5 w0 + 44 w1 + 62 w2 + 25 w5 + 0.587 w6 + 36 w7 + b + 10000 z62 >= 1
 c64: 2 w0 + 141 w1 + 58 w2 + 34 w3 + 128 w4 + 25.4 w5 + 0.699 w6 + 24 w7 + b
      + 10000 z63 >= 1
 c65: - 7 w0 - 114 w1 - 66 w2 - 32.8 w5 - 0.258 w6 - 42 w7 - b + 10000 z64 >= 1
 c66: 5 w0 + 99 w1 + 74 w2 + 27 w3 + 29 w5 + 0.203 w6 + 32 w7 + b + 10000 z65
      >= 1
 c67: - 109 w1 - 88 w2 - 30 w3 - 32.5 w5 - 0.855 w6 - 38 w7 - b + 10000 z66
      >= 1
 c68: 2 w0 + 109 w1 + 92 w2 + 42.7 w5 + 0.845 w6 + 54 w7 + b + 10000 z67 >= 1
 c69: w0 + 95 w1 + 66 w2 + 13 w3 + 38 w4 + 19.6 w5 + 0.334 w6 + 25 w7 + b
      + 10000 z68 >= 1
 c70: 4 w0 + 146 w1 + 85 w2 + 27 w3 + 100 w4 + 28.9 w5 + 0.189 w6 + 27 w7 + b
      + 10000 z69 >= 1
 c71: - 2 w0 - 100 w1 - 66 w2 - 20 w3 - 90 w4 - 32.9 w5 - 0.867 w6 - 28 w7 - b
      + 10000 z70 >= 1
 c72: 5 w0 + 139 w1 + 64 w2 + 35 w3 + 140 w4 + 28.6 w5 + 0.411 w6 + 26 w7 + b
      + 10000 z71 >= 1
 c73: - 13 w0 - 126 w1 - 90 w2 - 43.4 w5 - 0.583 w6 - 42 w7 - b + 10000 z72
      >= 1
 c74: 4 w0 + 129 w1 + 86 w2 + 20 w3 + 270 w4 + 35.1 w5 + 0.231 w6 + 23 w7 + b
      + 10000 z73 >= 1
 c75: w0 + 79 w1 + 75 w2 + 30 w3 + 32 w5 + 0.396 w6 + 22 w7 + b + 10000 z74
      >= 1
 c76: w0 + 48 w2 + 20 w3 + 24.7 w5 + 0.14 w6 + 22 w7 + b + 10000 z75 >= 1
 c77: 7 w0 + 62 w1 + 78 w2 + 32.6 w5 + 0.391 w6 + 41 w7 + b + 10000 z76 >= 1
 c78: 5 w0 + 95 w1 + 72 w2 + 33 w3 + 37.7 w5 + 0.37 w6 + 27 w7 + b + 10000 z77
      >= 1
 c79: - 131 w1 - 43.2 w5 - 0.27 w6 - 26 w7 - b + 10000 z78 >= 1
 c80: 2 w0 + 112 w1 + 66 w2 + 22 w3 + 25 w5 + 0.307 w6 + 24 w7 + b + 10000 z79
      >= 1
 c81: 3 w0 + 113 w1 + 44 w2 + 13 w3 + 22.4 w5 + 0.14 w6 + 22 w7 + b + 10000 z80
      >= 1
 c82: 2 w0 + 74 w1 + 0.102 w6 + 22 w7 + b + 10000 z81 >= 1
 c83: 7 w0 + 83 w1 + 78 w2 + 26 w3 + 71 w4 + 29.3 w5 + 0.767 w6 + 36 w7 + b
      + 10000 z82 >= 1
 c84: 101 w1 + 65 w2 + 28 w3 + 24.6 w5 + 0.237 w6 + 22 w7 + b + 10000 z83 >= 1
 c85: - 5 w0 - 137 w1 - 108 w2 - 48.8 w5 - 0.227 w6 - 37 w7 - b + 10000 z84
      >= 1
 c86: 2 w0 + 110 w1 + 74 w2 + 29 w3 + 125 w4 + 32.4 w5 + 0.698 w6 + 27 w7 + b
      + 10000 z85 >= 1
 c87: 13 w0 + 106 w1 + 72 w2 + 54 w3 + 36.6 w5 + 0.178 w6 + 45 w7 + b
      + 10000 z86 >= 1
Bounds
-1 <= b <= 1
 0 <= z0 <= 1
 0 <= z1 <= 1
 0 <= z2 <= 1
 0 <= z3 <= 1
 0 <= z4 <= 1
 0 <= z5 <= 1
 0 <= z6 <= 1
 0 <= z7 <= 1
 0 <= z8 <= 1
 0 <= z9 <= 1
 0 <= z10 <= 1
 0 <= z11 <= 1
 0 <= z12 <= 1
 0 <= z13 <= 1
 0 <= z14 <= 1
 0 <= z15 <= 1
 0 <= z16 <= 1
 0 <= z17 <= 1
 0 <= z18 <= 1
 0 <= z19 <= 1
 0 <= z20 <= 1
 0 <= z21 <= 1
 0 <= z22 <= 1
 0 <= z23 <= 1
 0 <= z24 <= 1
 0 <= z25 <= 1
 0 <= z26 <= 1
 0 <= z27 <= 1
 0 <= z28 <= 1
 0 <= z29 <= 1
 0 <= z30 <= 1
 0 <= z31 <= 1
 0 <= z32 <= 1
 0 <= z33 <= 1
 0 <= z34 <= 1
 0 <= z35 <= 1
 0 <= z36 <= 1
 0 <= z37 <= 1
 0 <= z38 <= 1
 0 <= z39 <= 1
 0 <= z40 <= 1
 0 <= z41 <= 1
 0 <= z42 <= 1
 0 <= z43 <= 1
 0 <= z44 <= 1
 0 <= z45 <= 1
 0 <= z46 <= 1
 0 <= z47 <= 1
 0 <= z48 <= 1
 0 <= z49 <= 1
 0 <= z50 <= 1
 0 <= z51 <= 1
 0 <= z52 <= 1
 0 <= z53 <= 1
 0 <= z54 <= 1
 0 <= z55 <= 1
 0 <= z56 <= 1
 0 <= z57 <= 1
 0 <= z58 <= 1
 0 <= z59 <= 1
 0 <= z60 <= 1
 0 <= z61 <= 1
 0 <= z62 <= 1
 0 <= z63 <= 1
 0 <= z64 <= 1
 0 <= z65 <= 1
 0 <= z66 <= 1
 0 <= z67 <= 1
 0 <= z68 <= 1
 0 <= z69 <= 1
 0 <= z70 <= 1
 0 <= z71 <= 1
 0 <= z72 <= 1
 0 <= z73 <= 1
 0 <= z74 <= 1
 0 <= z75 <= 1
 0 <= z76 <= 1
 0 <= z77 <= 1
 0 <= z78 <= 1
 0 <= z79 <= 1
 0 <= z80 <= 1
 0 <= z81 <= 1
 0 <= z82 <= 1
 0 <= z83 <= 1
 0 <= z84 <= 1
 0 <= z85 <= 1
 0 <= z86 <= 1
Binaries
 z0  z1  z2  z3  z4  z5  z6  z7  z8  z9  z10  z11  z12  z13  z14  z15  z16 
 z17  z18  z19  z20  z21  z22  z23  z24  z25  z26  z27  z28  z29  z30  z31 
 z32  z33  z34  z35  z36  z37  z38  z39  z40  z41  z42  z43  z44  z45  z46 
 z47  z48  z49  z50  z51  z52  z53  z54  z55  z56  z57  z58  z59  z60  z61 
 z62  z63  z64  z65  z66  z67  z68  z69  z70  z71  z72  z73  z74  z75  z76 
 z77  z78  z79  z80  z81  z82  z83  z84  z85  z86 
End
