wb/diabetes_small.txt.hm0.5.txt
    w:  [0.0, 0.0, 0.0, 0.0, 0.0, 0.0, 0.0, 0.0] ; b:  1.0
    time:  0.028058290481567383
